p cnf 12 50 
-11 -2 5 0
3 -8 -5 0
3 9 -5 0
-5 7 8 0
6 -9 2 0
-10 -3 -5 0
-12 -8 -11 0
-8 -12 11 0
1 6 -9 0
-2 4 12 0
8 1 2 0
-10 -6 -2 0
4 6 -11 0
12 7 -5 0
9 3 4 0
6 -9 7 0
-3 10 8 0
9 -2 -5 0
-2 -7 5 0
3 12 7 0
-3 6 -8 0
11 -8 1 0
5 -4 -10 0
-8 1 11 0
-1 -4 10 0
10 -2 -8 0
7 2 4 0
3 12 -2 0
-11 -4 -7 0
12 -2 -11 0
-3 1 -10 0
-7 8 -9 0
6 -9 7 0
-10 5 2 0
-5 4 7 0
2 1 9 0
-2 5 -11 0
10 -4 8 0
7 1 3 0
1 2 3 0
4 9 5 0
-12 2 6 0
-2 12 1 0
-7 -1 4 0
-6 -10 -8 0
9 2 1 0
-1 8 -6 0
11 5 -1 0
-10 -4 -9 0
-4 -3 -9 0
